unsat
(:eliminated-applications 64
 :eliminated-vars         194
 :max-memory              24.51
 :memory                  18.37
 :nlsat-conflicts         17768
 :nlsat-decisions         14183
 :nlsat-learned-added     15749
 :nlsat-learned-deleted   11438
 :nlsat-propagations      153696
 :nlsat-restarts          11
 :nlsat-stages            13122
 :num-allocs              6801492
 :rlimit-count            14644364
 :time                    50.99
 :total-time              50.88)
